(set-logic UFLIRA)
(declare-fun Measure_29_presence () Bool)
(declare-fun RefuseRequest (Int) Bool)
(declare-fun SupportCalled_49_presence () Bool)
(declare-fun RefuseRequest_39_presence () Bool)
(declare-fun SupportCalled (Int) Bool)
(declare-fun CurtainOpenRqt_49_presence () Bool)
(declare-fun DressingStarted_89_presence () Bool)
(declare-fun CurtainsOpened (Int) Bool)
(declare-fun DressingComplete_39_presence () Bool)
(declare-fun Measure_27_presence () Bool)
(declare-fun DressingStarted (Int) Bool)
(declare-fun RetryAgreed_69_presence () Bool)
(declare-fun DressingComplete (Int) Bool)
(declare-fun RetryAgreed (Int) Bool)
(declare-fun Measure (Int Bool Int Bool Int) Bool)
(declare-fun UserFallen_59_presence () Bool)
(declare-fun CurtainOpenRqt (Int) Bool)
(declare-fun UserFallen (Int) Bool)
(declare-fun DressingAbandoned (Int) Bool)
(declare-fun CurtainsOpened_39_presence () Bool)
(declare-fun DressingAbandoned_49_presence () Bool)
(declare-fun Measure_28_presence () Bool)
(assert (let ((.def_0 (forall ((Measure_29_time Int)(Measure_29_userUnderDressed Bool)(Measure_29_roomTemperature Int)(Measure_29_assentToSupportCalls Bool)(Measure_29_userDistressed Int)) (let ((.def_0 (<= 0 Measure_29_time))) (let ((.def_1 (and .def_0 true true true true))) (let ((.def_2 (=> Measure_29_presence .def_1))) (let ((.def_3 (Measure Measure_29_time Measure_29_userUnderDressed Measure_29_roomTemperature Measure_29_assentToSupportCalls Measure_29_userDistressed))) (let ((.def_4 (not .def_3))) (let ((.def_5 (or .def_4 .def_2))) .def_5)))))))))(let ((.def_1 (forall ((RetryAgreed_69_time Int)) (let ((.def_0 (<= 0 RetryAgreed_69_time))) (let ((.def_1 (=> RetryAgreed_69_presence .def_0))) (let ((.def_2 (RetryAgreed RetryAgreed_69_time))) (let ((.def_3 (not .def_2))) (let ((.def_4 (or .def_3 .def_1))) .def_4))))))))(let ((.def_2 (forall ((SupportCalled_49_time Int)) (let ((.def_0 (<= 0 SupportCalled_49_time))) (let ((.def_1 (=> SupportCalled_49_presence .def_0))) (let ((.def_2 (SupportCalled SupportCalled_49_time))) (let ((.def_3 (not .def_2))) (let ((.def_4 (or .def_3 .def_1))) .def_4))))))))(let ((.def_3 (forall ((UserFallen_59_time Int)) (let ((.def_0 (<= 0 UserFallen_59_time))) (let ((.def_1 (=> UserFallen_59_presence .def_0))) (let ((.def_2 (UserFallen UserFallen_59_time))) (let ((.def_3 (not .def_2))) (let ((.def_4 (or .def_3 .def_1))) .def_4))))))))(let ((.def_4 (forall ((RefuseRequest_39_time Int)) (let ((.def_0 (<= 0 RefuseRequest_39_time))) (let ((.def_1 (=> RefuseRequest_39_presence .def_0))) (let ((.def_2 (RefuseRequest RefuseRequest_39_time))) (let ((.def_3 (not .def_2))) (let ((.def_4 (or .def_3 .def_1))) .def_4))))))))(let ((.def_5 (forall ((CurtainsOpened_39_time Int)) (let ((.def_0 (<= 0 CurtainsOpened_39_time))) (let ((.def_1 (=> CurtainsOpened_39_presence .def_0))) (let ((.def_2 (CurtainsOpened CurtainsOpened_39_time))) (let ((.def_3 (not .def_2))) (let ((.def_4 (or .def_3 .def_1))) .def_4))))))))(let ((.def_6 (forall ((CurtainOpenRqt_49_time Int)) (let ((.def_0 (<= 0 CurtainOpenRqt_49_time))) (let ((.def_1 (=> CurtainOpenRqt_49_presence .def_0))) (let ((.def_2 (CurtainOpenRqt CurtainOpenRqt_49_time))) (let ((.def_3 (not .def_2))) (let ((.def_4 (or .def_3 .def_1))) .def_4))))))))(let ((.def_7 (forall ((DressingAbandoned_49_time Int)) (let ((.def_0 (<= 0 DressingAbandoned_49_time))) (let ((.def_1 (=> DressingAbandoned_49_presence .def_0))) (let ((.def_2 (DressingAbandoned DressingAbandoned_49_time))) (let ((.def_3 (not .def_2))) (let ((.def_4 (or .def_3 .def_1))) .def_4))))))))(let ((.def_8 (forall ((DressingComplete_39_time Int)) (let ((.def_0 (<= 0 DressingComplete_39_time))) (let ((.def_1 (=> DressingComplete_39_presence .def_0))) (let ((.def_2 (DressingComplete DressingComplete_39_time))) (let ((.def_3 (not .def_2))) (let ((.def_4 (or .def_3 .def_1))) .def_4))))))))(let ((.def_9 (forall ((DressingStarted_89_time Int)) (let ((.def_0 (<= 0 DressingStarted_89_time))) (let ((.def_1 (=> DressingStarted_89_presence .def_0))) (let ((.def_2 (DressingStarted DressingStarted_89_time))) (let ((.def_3 (not .def_2))) (let ((.def_4 (or .def_3 .def_1))) .def_4))))))))(let ((.def_10 (exists ((t_RetryAgreed_32_time Int)) (let ((.def_0 (forall ((RetryAgreed_68_time Int)) (let ((.def_0 (<= RetryAgreed_68_time t_RetryAgreed_32_time))) (let ((.def_1 (RetryAgreed RetryAgreed_68_time))) (let ((.def_2 (not .def_1))) (let ((.def_3 (or .def_2 .def_0))) .def_3)))))))(let ((.def_1 (RetryAgreed t_RetryAgreed_32_time))) (let ((.def_2 (and .def_1 .def_0))) .def_2))))))(let ((.def_11 (exists ((t_RetryAgreed_31_time Int)) (let ((.def_0 (forall ((RetryAgreed_67_time Int)) (let ((.def_0 (<= t_RetryAgreed_31_time RetryAgreed_67_time))) (let ((.def_1 (RetryAgreed RetryAgreed_67_time))) (let ((.def_2 (not .def_1))) (let ((.def_3 (or .def_2 .def_0))) .def_3)))))))(let ((.def_1 (RetryAgreed t_RetryAgreed_31_time))) (let ((.def_2 (and .def_1 .def_0))) .def_2))))))(let ((.def_12 (and .def_11 .def_10))) (let ((.def_13 (forall ((RetryAgreed_66_time Int)) (let ((.def_0 (not true))) (let ((.def_1 (RetryAgreed RetryAgreed_66_time))) (let ((.def_2 (not .def_1))) (let ((.def_3 (or .def_2 .def_0))) .def_3)))))))(let ((.def_14 (or .def_13 .def_12))) (let ((.def_15 (exists ((t_SupportCalled_69_time Int)) (let ((.def_0 (forall ((SupportCalled_48_time Int)) (let ((.def_0 (<= SupportCalled_48_time t_SupportCalled_69_time))) (let ((.def_1 (SupportCalled SupportCalled_48_time))) (let ((.def_2 (not .def_1))) (let ((.def_3 (or .def_2 .def_0))) .def_3)))))))(let ((.def_1 (SupportCalled t_SupportCalled_69_time))) (let ((.def_2 (and .def_1 .def_0))) .def_2))))))(let ((.def_16 (exists ((t_SupportCalled_68_time Int)) (let ((.def_0 (forall ((SupportCalled_47_time Int)) (let ((.def_0 (<= t_SupportCalled_68_time SupportCalled_47_time))) (let ((.def_1 (SupportCalled SupportCalled_47_time))) (let ((.def_2 (not .def_1))) (let ((.def_3 (or .def_2 .def_0))) .def_3)))))))(let ((.def_1 (SupportCalled t_SupportCalled_68_time))) (let ((.def_2 (and .def_1 .def_0))) .def_2))))))(let ((.def_17 (and .def_16 .def_15))) (let ((.def_18 (forall ((SupportCalled_46_time Int)) (let ((.def_0 (not true))) (let ((.def_1 (SupportCalled SupportCalled_46_time))) (let ((.def_2 (not .def_1))) (let ((.def_3 (or .def_2 .def_0))) .def_3)))))))(let ((.def_19 (or .def_18 .def_17))) (let ((.def_20 (exists ((t_UserFallen_20_time Int)) (let ((.def_0 (forall ((UserFallen_58_time Int)) (let ((.def_0 (<= UserFallen_58_time t_UserFallen_20_time))) (let ((.def_1 (UserFallen UserFallen_58_time))) (let ((.def_2 (not .def_1))) (let ((.def_3 (or .def_2 .def_0))) .def_3)))))))(let ((.def_1 (UserFallen t_UserFallen_20_time))) (let ((.def_2 (and .def_1 .def_0))) .def_2))))))(let ((.def_21 (exists ((t_UserFallen_19_time Int)) (let ((.def_0 (forall ((UserFallen_57_time Int)) (let ((.def_0 (<= t_UserFallen_19_time UserFallen_57_time))) (let ((.def_1 (UserFallen UserFallen_57_time))) (let ((.def_2 (not .def_1))) (let ((.def_3 (or .def_2 .def_0))) .def_3)))))))(let ((.def_1 (UserFallen t_UserFallen_19_time))) (let ((.def_2 (and .def_1 .def_0))) .def_2))))))(let ((.def_22 (and .def_21 .def_20))) (let ((.def_23 (forall ((UserFallen_56_time Int)) (let ((.def_0 (not true))) (let ((.def_1 (UserFallen UserFallen_56_time))) (let ((.def_2 (not .def_1))) (let ((.def_3 (or .def_2 .def_0))) .def_3)))))))(let ((.def_24 (or .def_23 .def_22))) (let ((.def_25 (exists ((t_RefuseRequest_29_time Int)) (let ((.def_0 (forall ((RefuseRequest_38_time Int)) (let ((.def_0 (<= RefuseRequest_38_time t_RefuseRequest_29_time))) (let ((.def_1 (RefuseRequest RefuseRequest_38_time))) (let ((.def_2 (not .def_1))) (let ((.def_3 (or .def_2 .def_0))) .def_3)))))))(let ((.def_1 (RefuseRequest t_RefuseRequest_29_time))) (let ((.def_2 (and .def_1 .def_0))) .def_2))))))(let ((.def_26 (exists ((t_RefuseRequest_28_time Int)) (let ((.def_0 (forall ((RefuseRequest_37_time Int)) (let ((.def_0 (<= t_RefuseRequest_28_time RefuseRequest_37_time))) (let ((.def_1 (RefuseRequest RefuseRequest_37_time))) (let ((.def_2 (not .def_1))) (let ((.def_3 (or .def_2 .def_0))) .def_3)))))))(let ((.def_1 (RefuseRequest t_RefuseRequest_28_time))) (let ((.def_2 (and .def_1 .def_0))) .def_2))))))(let ((.def_27 (and .def_26 .def_25))) (let ((.def_28 (forall ((RefuseRequest_36_time Int)) (let ((.def_0 (not true))) (let ((.def_1 (RefuseRequest RefuseRequest_36_time))) (let ((.def_2 (not .def_1))) (let ((.def_3 (or .def_2 .def_0))) .def_3)))))))(let ((.def_29 (or .def_28 .def_27))) (let ((.def_30 (exists ((t_CurtainsOpened_39_time Int)) (let ((.def_0 (forall ((CurtainsOpened_38_time Int)) (let ((.def_0 (<= CurtainsOpened_38_time t_CurtainsOpened_39_time))) (let ((.def_1 (CurtainsOpened CurtainsOpened_38_time))) (let ((.def_2 (not .def_1))) (let ((.def_3 (or .def_2 .def_0))) .def_3)))))))(let ((.def_1 (CurtainsOpened t_CurtainsOpened_39_time))) (let ((.def_2 (and .def_1 .def_0))) .def_2))))))(let ((.def_31 (exists ((t_CurtainsOpened_38_time Int)) (let ((.def_0 (forall ((CurtainsOpened_37_time Int)) (let ((.def_0 (<= t_CurtainsOpened_38_time CurtainsOpened_37_time))) (let ((.def_1 (CurtainsOpened CurtainsOpened_37_time))) (let ((.def_2 (not .def_1))) (let ((.def_3 (or .def_2 .def_0))) .def_3)))))))(let ((.def_1 (CurtainsOpened t_CurtainsOpened_38_time))) (let ((.def_2 (and .def_1 .def_0))) .def_2))))))(let ((.def_32 (and .def_31 .def_30))) (let ((.def_33 (forall ((CurtainsOpened_36_time Int)) (let ((.def_0 (not true))) (let ((.def_1 (CurtainsOpened CurtainsOpened_36_time))) (let ((.def_2 (not .def_1))) (let ((.def_3 (or .def_2 .def_0))) .def_3)))))))(let ((.def_34 (or .def_33 .def_32))) (let ((.def_35 (exists ((t_CurtainOpenRqt_20_time Int)) (let ((.def_0 (forall ((CurtainOpenRqt_48_time Int)) (let ((.def_0 (<= CurtainOpenRqt_48_time t_CurtainOpenRqt_20_time))) (let ((.def_1 (CurtainOpenRqt CurtainOpenRqt_48_time))) (let ((.def_2 (not .def_1))) (let ((.def_3 (or .def_2 .def_0))) .def_3)))))))(let ((.def_1 (CurtainOpenRqt t_CurtainOpenRqt_20_time))) (let ((.def_2 (and .def_1 .def_0))) .def_2))))))(let ((.def_36 (exists ((t_CurtainOpenRqt_19_time Int)) (let ((.def_0 (forall ((CurtainOpenRqt_47_time Int)) (let ((.def_0 (<= t_CurtainOpenRqt_19_time CurtainOpenRqt_47_time))) (let ((.def_1 (CurtainOpenRqt CurtainOpenRqt_47_time))) (let ((.def_2 (not .def_1))) (let ((.def_3 (or .def_2 .def_0))) .def_3)))))))(let ((.def_1 (CurtainOpenRqt t_CurtainOpenRqt_19_time))) (let ((.def_2 (and .def_1 .def_0))) .def_2))))))(let ((.def_37 (and .def_36 .def_35))) (let ((.def_38 (forall ((CurtainOpenRqt_46_time Int)) (let ((.def_0 (not true))) (let ((.def_1 (CurtainOpenRqt CurtainOpenRqt_46_time))) (let ((.def_2 (not .def_1))) (let ((.def_3 (or .def_2 .def_0))) .def_3)))))))(let ((.def_39 (or .def_38 .def_37))) (let ((.def_40 (exists ((t_DressingAbandoned_70_time Int)) (let ((.def_0 (forall ((DressingAbandoned_48_time Int)) (let ((.def_0 (<= DressingAbandoned_48_time t_DressingAbandoned_70_time))) (let ((.def_1 (DressingAbandoned DressingAbandoned_48_time))) (let ((.def_2 (not .def_1))) (let ((.def_3 (or .def_2 .def_0))) .def_3)))))))(let ((.def_1 (DressingAbandoned t_DressingAbandoned_70_time))) (let ((.def_2 (and .def_1 .def_0))) .def_2))))))(let ((.def_41 (exists ((t_DressingAbandoned_69_time Int)) (let ((.def_0 (forall ((DressingAbandoned_47_time Int)) (let ((.def_0 (<= t_DressingAbandoned_69_time DressingAbandoned_47_time))) (let ((.def_1 (DressingAbandoned DressingAbandoned_47_time))) (let ((.def_2 (not .def_1))) (let ((.def_3 (or .def_2 .def_0))) .def_3)))))))(let ((.def_1 (DressingAbandoned t_DressingAbandoned_69_time))) (let ((.def_2 (and .def_1 .def_0))) .def_2))))))(let ((.def_42 (and .def_41 .def_40))) (let ((.def_43 (forall ((DressingAbandoned_46_time Int)) (let ((.def_0 (not true))) (let ((.def_1 (DressingAbandoned DressingAbandoned_46_time))) (let ((.def_2 (not .def_1))) (let ((.def_3 (or .def_2 .def_0))) .def_3)))))))(let ((.def_44 (or .def_43 .def_42))) (let ((.def_45 (exists ((t_DressingComplete_89_time Int)) (let ((.def_0 (forall ((DressingComplete_38_time Int)) (let ((.def_0 (<= DressingComplete_38_time t_DressingComplete_89_time))) (let ((.def_1 (DressingComplete DressingComplete_38_time))) (let ((.def_2 (not .def_1))) (let ((.def_3 (or .def_2 .def_0))) .def_3)))))))(let ((.def_1 (DressingComplete t_DressingComplete_89_time))) (let ((.def_2 (and .def_1 .def_0))) .def_2))))))(let ((.def_46 (exists ((t_DressingComplete_88_time Int)) (let ((.def_0 (forall ((DressingComplete_37_time Int)) (let ((.def_0 (<= t_DressingComplete_88_time DressingComplete_37_time))) (let ((.def_1 (DressingComplete DressingComplete_37_time))) (let ((.def_2 (not .def_1))) (let ((.def_3 (or .def_2 .def_0))) .def_3)))))))(let ((.def_1 (DressingComplete t_DressingComplete_88_time))) (let ((.def_2 (and .def_1 .def_0))) .def_2))))))(let ((.def_47 (and .def_46 .def_45))) (let ((.def_48 (forall ((DressingComplete_36_time Int)) (let ((.def_0 (not true))) (let ((.def_1 (DressingComplete DressingComplete_36_time))) (let ((.def_2 (not .def_1))) (let ((.def_3 (or .def_2 .def_0))) .def_3)))))))(let ((.def_49 (or .def_48 .def_47))) (let ((.def_50 (exists ((t_DressingStarted_53_time Int)) (let ((.def_0 (forall ((DressingStarted_88_time Int)) (let ((.def_0 (<= DressingStarted_88_time t_DressingStarted_53_time))) (let ((.def_1 (DressingStarted DressingStarted_88_time))) (let ((.def_2 (not .def_1))) (let ((.def_3 (or .def_2 .def_0))) .def_3)))))))(let ((.def_1 (DressingStarted t_DressingStarted_53_time))) (let ((.def_2 (and .def_1 .def_0))) .def_2))))))(let ((.def_51 (exists ((t_DressingStarted_52_time Int)) (let ((.def_0 (forall ((DressingStarted_87_time Int)) (let ((.def_0 (<= t_DressingStarted_52_time DressingStarted_87_time))) (let ((.def_1 (DressingStarted DressingStarted_87_time))) (let ((.def_2 (not .def_1))) (let ((.def_3 (or .def_2 .def_0))) .def_3)))))))(let ((.def_1 (DressingStarted t_DressingStarted_52_time))) (let ((.def_2 (and .def_1 .def_0))) .def_2))))))(let ((.def_52 (and .def_51 .def_50))) (let ((.def_53 (forall ((DressingStarted_86_time Int)) (let ((.def_0 (not true))) (let ((.def_1 (DressingStarted DressingStarted_86_time))) (let ((.def_2 (not .def_1))) (let ((.def_3 (or .def_2 .def_0))) .def_3)))))))(let ((.def_54 (or .def_53 .def_52))) (let ((.def_55 (forall ((Measure_27_time Int)(Measure_27_userUnderDressed Bool)(Measure_27_roomTemperature Int)(Measure_27_assentToSupportCalls Bool)(Measure_27_userDistressed Int)) (let ((.def_0 (forall ((Measure_28_time Int)(Measure_28_userUnderDressed Bool)(Measure_28_roomTemperature Int)(Measure_28_assentToSupportCalls Bool)(Measure_28_userDistressed Int)) (let ((.def_0 (= Measure_27_presence Measure_28_presence))) (let ((.def_1 (= Measure_27_userDistressed Measure_28_userDistressed))) (let ((.def_2 (= Measure_27_assentToSupportCalls Measure_28_assentToSupportCalls))) (let ((.def_3 (= Measure_27_roomTemperature Measure_28_roomTemperature))) (let ((.def_4 (= Measure_27_userUnderDressed Measure_28_userUnderDressed))) (let ((.def_5 (= Measure_27_time Measure_28_time))) (let ((.def_6 (and .def_5 .def_4 .def_3 .def_2 .def_1 .def_0))) (let ((.def_7 (not .def_5))) (let ((.def_8 (or .def_7 .def_6))) (let ((.def_9 (Measure Measure_28_time Measure_28_userUnderDressed Measure_28_roomTemperature Measure_28_assentToSupportCalls Measure_28_userDistressed))) (let ((.def_10 (not .def_9))) (let ((.def_11 (or .def_10 .def_8))) .def_11)))))))))))))))(let ((.def_1 (Measure Measure_27_time Measure_27_userUnderDressed Measure_27_roomTemperature Measure_27_assentToSupportCalls Measure_27_userDistressed))) (let ((.def_2 (not .def_1))) (let ((.def_3 (or .def_2 .def_0))) .def_3)))))))(let ((.def_56 (forall ((UserFallen_55_time Int)) (let ((.def_0 (exists ((t_Measure_149_time Int)(t_Measure_149_userUnderDressed Bool)(t_Measure_149_roomTemperature Int)(t_Measure_149_assentToSupportCalls Bool)(t_Measure_149_userDistressed Int)) (let ((.def_0 (forall ((SupportCalled_45_time Int)) (let ((.def_0 (+ UserFallen_55_time 0))) (let ((.def_1 (<= .def_0 SupportCalled_45_time))) (let ((.def_2 (not .def_1))) (let ((.def_3 (+ UserFallen_55_time 120))) (let ((.def_4 (<= SupportCalled_45_time .def_3))) (let ((.def_5 (not .def_4))) (let ((.def_6 (or .def_5 .def_2))) (let ((.def_7 (SupportCalled SupportCalled_45_time))) (let ((.def_8 (not .def_7))) (let ((.def_9 (or .def_8 .def_6))) .def_9)))))))))))))(let ((.def_1 (not t_Measure_149_assentToSupportCalls))) (let ((.def_2 (or .def_1 .def_0))) (let ((.def_3 (= UserFallen_55_time t_Measure_149_time))) (let ((.def_4 (and .def_3 .def_2))) (let ((.def_5 (Measure t_Measure_149_time t_Measure_149_userUnderDressed t_Measure_149_roomTemperature t_Measure_149_assentToSupportCalls t_Measure_149_userDistressed))) (let ((.def_6 (and .def_5 .def_4))) .def_6))))))))))(let ((.def_1 (UserFallen UserFallen_55_time))) (let ((.def_2 (not .def_1))) (let ((.def_3 (or .def_2 .def_0))) .def_3)))))))(let ((.def_57 (forall ((DressingStarted_85_time Int)) (let ((.def_0 (exists ((t_Measure_148_time Int)(t_Measure_148_userUnderDressed Bool)(t_Measure_148_roomTemperature Int)(t_Measure_148_assentToSupportCalls Bool)(t_Measure_148_userDistressed Int)) (let ((.def_0 (exists ((t_DressingComplete_87_time Int)) (let ((.def_0 (+ DressingStarted_85_time 0))) (let ((.def_1 (<= .def_0 t_DressingComplete_87_time))) (let ((.def_2 (+ DressingStarted_85_time 60))) (let ((.def_3 (<= t_DressingComplete_87_time .def_2))) (let ((.def_4 (and .def_3 .def_1))) (let ((.def_5 (DressingComplete t_DressingComplete_87_time))) (let ((.def_6 (and .def_5 .def_4))) .def_6))))))))))(let ((.def_1 (exists ((t_DressingAbandoned_68_time Int)) (let ((.def_0 (+ DressingStarted_85_time 0))) (let ((.def_1 (<= .def_0 t_DressingAbandoned_68_time))) (let ((.def_2 (+ DressingStarted_85_time 120))) (let ((.def_3 (<= t_DressingAbandoned_68_time .def_2))) (let ((.def_4 (and .def_3 .def_1))) (let ((.def_5 (DressingAbandoned t_DressingAbandoned_68_time))) (let ((.def_6 (and .def_5 .def_4))) .def_6))))))))))(let ((.def_2 (or .def_1 .def_0))) (let ((.def_3 (not t_Measure_148_userUnderDressed))) (let ((.def_4 (< t_Measure_148_roomTemperature 16))) (let ((.def_5 (not .def_4))) (let ((.def_6 (and .def_5 .def_3))) (let ((.def_7 (or .def_6 .def_2))) (let ((.def_8 (= DressingStarted_85_time t_Measure_148_time))) (let ((.def_9 (and .def_8 .def_7))) (let ((.def_10 (Measure t_Measure_148_time t_Measure_148_userUnderDressed t_Measure_148_roomTemperature t_Measure_148_assentToSupportCalls t_Measure_148_userDistressed))) (let ((.def_11 (and .def_10 .def_9))) .def_11)))))))))))))))(let ((.def_1 (DressingStarted DressingStarted_85_time))) (let ((.def_2 (not .def_1))) (let ((.def_3 (or .def_2 .def_0))) .def_3)))))))(let ((.def_58 (forall ((DressingAbandoned_45_time Int)) (let ((.def_0 (exists ((t_Measure_146_time Int)(t_Measure_146_userUnderDressed Bool)(t_Measure_146_roomTemperature Int)(t_Measure_146_assentToSupportCalls Bool)(t_Measure_146_userDistressed Int)) (let ((.def_0 (exists ((t_Measure_147_time Int)(t_Measure_147_userUnderDressed Bool)(t_Measure_147_roomTemperature Int)(t_Measure_147_assentToSupportCalls Bool)(t_Measure_147_userDistressed Int)) (let ((.def_0 (exists ((t_SupportCalled_67_time Int)) (let ((.def_0 (+ t_Measure_147_time 0))) (let ((.def_1 (<= .def_0 t_SupportCalled_67_time))) (let ((.def_2 (<= t_SupportCalled_67_time .def_0))) (let ((.def_3 (and .def_2 .def_1))) (let ((.def_4 (SupportCalled t_SupportCalled_67_time))) (let ((.def_5 (and .def_4 .def_3))) .def_5)))))))))(let ((.def_1 (not true))) (let ((.def_2 (not t_Measure_147_assentToSupportCalls))) (let ((.def_3 (or .def_1 .def_2))) (let ((.def_4 (or .def_3 .def_1))) (let ((.def_5 (or .def_4 .def_0))) (let ((.def_6 (and true .def_5))) (let ((.def_7 (+ t_Measure_146_time 1800))) (let ((.def_8 (= .def_7 t_Measure_147_time))) (let ((.def_9 (and .def_8 .def_6))) (let ((.def_10 (Measure t_Measure_147_time t_Measure_147_userUnderDressed t_Measure_147_roomTemperature t_Measure_147_assentToSupportCalls t_Measure_147_userDistressed))) (let ((.def_11 (and .def_10 .def_9))) .def_11)))))))))))))))(let ((.def_1 (exists ((t_RetryAgreed_30_time Int)) (let ((.def_0 (+ DressingAbandoned_45_time 0))) (let ((.def_1 (<= .def_0 t_RetryAgreed_30_time))) (let ((.def_2 (+ DressingAbandoned_45_time 1800))) (let ((.def_3 (<= t_RetryAgreed_30_time .def_2))) (let ((.def_4 (and .def_3 .def_1))) (let ((.def_5 (RetryAgreed t_RetryAgreed_30_time))) (let ((.def_6 (and .def_5 .def_4))) .def_6))))))))))(let ((.def_2 (or .def_1 .def_0))) (let ((.def_3 (= DressingAbandoned_45_time t_Measure_146_time))) (let ((.def_4 (and .def_3 .def_2))) (let ((.def_5 (Measure t_Measure_146_time t_Measure_146_userUnderDressed t_Measure_146_roomTemperature t_Measure_146_assentToSupportCalls t_Measure_146_userDistressed))) (let ((.def_6 (and .def_5 .def_4))) .def_6))))))))))(let ((.def_1 (DressingAbandoned DressingAbandoned_45_time))) (let ((.def_2 (not .def_1))) (let ((.def_3 (or .def_2 .def_0))) .def_3)))))))(let ((.def_59 (forall ((UserFallen_54_time Int)) (let ((.def_0 (exists ((t_Measure_145_time Int)(t_Measure_145_userUnderDressed Bool)(t_Measure_145_roomTemperature Int)(t_Measure_145_assentToSupportCalls Bool)(t_Measure_145_userDistressed Int)) (let ((.def_0 (exists ((t_SupportCalled_66_time Int)) (let ((.def_0 (+ UserFallen_54_time 0))) (let ((.def_1 (<= .def_0 t_SupportCalled_66_time))) (let ((.def_2 (<= t_SupportCalled_66_time .def_0))) (let ((.def_3 (and .def_2 .def_1))) (let ((.def_4 (SupportCalled t_SupportCalled_66_time))) (let ((.def_5 (and .def_4 .def_3))) .def_5)))))))))(let ((.def_1 (not true))) (let ((.def_2 (not t_Measure_145_assentToSupportCalls))) (let ((.def_3 (or .def_1 .def_2))) (let ((.def_4 (or .def_3 .def_1))) (let ((.def_5 (or .def_4 .def_0))) (let ((.def_6 (and true .def_5))) (let ((.def_7 (= UserFallen_54_time t_Measure_145_time))) (let ((.def_8 (and .def_7 .def_6))) (let ((.def_9 (Measure t_Measure_145_time t_Measure_145_userUnderDressed t_Measure_145_roomTemperature t_Measure_145_assentToSupportCalls t_Measure_145_userDistressed))) (let ((.def_10 (and .def_9 .def_8))) .def_10))))))))))))))(let ((.def_1 (UserFallen UserFallen_54_time))) (let ((.def_2 (not .def_1))) (let ((.def_3 (or .def_2 .def_0))) .def_3)))))))(let ((.def_60 (forall ((CurtainOpenRqt_45_time Int)) (let ((.def_0 (exists ((t_Measure_144_time Int)(t_Measure_144_userUnderDressed Bool)(t_Measure_144_roomTemperature Int)(t_Measure_144_assentToSupportCalls Bool)(t_Measure_144_userDistressed Int)) (let ((.def_0 (exists ((t_CurtainsOpened_37_time Int)) (let ((.def_0 (+ CurtainOpenRqt_45_time 0))) (let ((.def_1 (<= .def_0 t_CurtainsOpened_37_time))) (let ((.def_2 (+ CurtainOpenRqt_45_time 60))) (let ((.def_3 (<= t_CurtainsOpened_37_time .def_2))) (let ((.def_4 (and .def_3 .def_1))) (let ((.def_5 (CurtainsOpened t_CurtainsOpened_37_time))) (let ((.def_6 (and .def_5 .def_4))) .def_6))))))))))(let ((.def_1 (not true))) (let ((.def_2 (< 2 t_Measure_144_userDistressed))) (let ((.def_3 (or .def_1 .def_2))) (let ((.def_4 (or .def_3 t_Measure_144_userUnderDressed))) (let ((.def_5 (or .def_4 .def_1))) (let ((.def_6 (or .def_5 .def_0))) (let ((.def_7 (exists ((t_RefuseRequest_27_time Int)) (let ((.def_0 (+ CurtainOpenRqt_45_time 0))) (let ((.def_1 (<= .def_0 t_RefuseRequest_27_time))) (let ((.def_2 (+ CurtainOpenRqt_45_time 30))) (let ((.def_3 (<= t_RefuseRequest_27_time .def_2))) (let ((.def_4 (and .def_3 .def_1))) (let ((.def_5 (RefuseRequest t_RefuseRequest_27_time))) (let ((.def_6 (and .def_5 .def_4))) .def_6))))))))))(let ((.def_8 (not t_Measure_144_userUnderDressed))) (let ((.def_9 (or .def_3 .def_8))) (let ((.def_10 (or .def_9 .def_7))) (let ((.def_11 (exists ((t_CurtainsOpened_36_time Int)) (let ((.def_0 (+ CurtainOpenRqt_45_time 0))) (let ((.def_1 (<= .def_0 t_CurtainsOpened_36_time))) (let ((.def_2 (+ CurtainOpenRqt_45_time 60))) (let ((.def_3 (<= t_CurtainsOpened_36_time .def_2))) (let ((.def_4 (and .def_3 .def_1))) (let ((.def_5 (CurtainsOpened t_CurtainsOpened_36_time))) (let ((.def_6 (and .def_5 .def_4))) .def_6))))))))))(let ((.def_12 (not .def_2))) (let ((.def_13 (or .def_1 .def_12))) (let ((.def_14 (or .def_13 .def_11))) (let ((.def_15 (and .def_14 .def_10 .def_6))) (let ((.def_16 (= CurtainOpenRqt_45_time t_Measure_144_time))) (let ((.def_17 (and .def_16 .def_15))) (let ((.def_18 (Measure t_Measure_144_time t_Measure_144_userUnderDressed t_Measure_144_roomTemperature t_Measure_144_assentToSupportCalls t_Measure_144_userDistressed))) (let ((.def_19 (and .def_18 .def_17))) .def_19)))))))))))))))))))))))(let ((.def_1 (CurtainOpenRqt CurtainOpenRqt_45_time))) (let ((.def_2 (not .def_1))) (let ((.def_3 (or .def_2 .def_0))) .def_3)))))))(let ((.def_61 (forall ((RetryAgreed_65_time Int)) (let ((.def_0 (exists ((t_Measure_143_time Int)(t_Measure_143_userUnderDressed Bool)(t_Measure_143_roomTemperature Int)(t_Measure_143_assentToSupportCalls Bool)(t_Measure_143_userDistressed Int)) (let ((.def_0 (exists ((t_DressingAbandoned_67_time Int)) (let ((.def_0 (<= RetryAgreed_65_time t_DressingAbandoned_67_time))) (let ((.def_1 (DressingAbandoned t_DressingAbandoned_67_time))) (let ((.def_2 (and .def_1 .def_0))) .def_2))))))(let ((.def_1 (exists ((t_DressingComplete_86_time Int)) (let ((.def_0 (<= RetryAgreed_65_time t_DressingComplete_86_time))) (let ((.def_1 (DressingComplete t_DressingComplete_86_time))) (let ((.def_2 (and .def_1 .def_0))) .def_2))))))(let ((.def_2 (or .def_1 .def_0))) (let ((.def_3 (= RetryAgreed_65_time t_Measure_143_time))) (let ((.def_4 (and .def_3 .def_2))) (let ((.def_5 (Measure t_Measure_143_time t_Measure_143_userUnderDressed t_Measure_143_roomTemperature t_Measure_143_assentToSupportCalls t_Measure_143_userDistressed))) (let ((.def_6 (and .def_5 .def_4))) .def_6))))))))))(let ((.def_1 (RetryAgreed RetryAgreed_65_time))) (let ((.def_2 (not .def_1))) (let ((.def_3 (or .def_2 .def_0))) .def_3)))))))(let ((.def_62 (forall ((RetryAgreed_64_time Int)) (let ((.def_0 (exists ((t_Measure_141_time Int)(t_Measure_141_userUnderDressed Bool)(t_Measure_141_roomTemperature Int)(t_Measure_141_assentToSupportCalls Bool)(t_Measure_141_userDistressed Int)) (let ((.def_0 (exists ((t_DressingStarted_51_time Int)) (let ((.def_0 (<= RetryAgreed_64_time t_DressingStarted_51_time))) (let ((.def_1 (DressingStarted t_DressingStarted_51_time))) (let ((.def_2 (and .def_1 .def_0))) .def_2))))))(let ((.def_1 (not true))) (let ((.def_2 (= t_Measure_141_userDistressed 3))) (let ((.def_3 (or .def_1 .def_2))) (let ((.def_4 (or .def_3 .def_1))) (let ((.def_5 (or .def_4 .def_0))) (let ((.def_6 (exists ((t_Measure_142_time Int)(t_Measure_142_userUnderDressed Bool)(t_Measure_142_roomTemperature Int)(t_Measure_142_assentToSupportCalls Bool)(t_Measure_142_userDistressed Int)) (let ((.def_0 (exists ((t_SupportCalled_65_time Int)) (let ((.def_0 (+ t_Measure_142_time 0))) (let ((.def_1 (<= .def_0 t_SupportCalled_65_time))) (let ((.def_2 (+ t_Measure_142_time 30))) (let ((.def_3 (<= t_SupportCalled_65_time .def_2))) (let ((.def_4 (and .def_3 .def_1))) (let ((.def_5 (SupportCalled t_SupportCalled_65_time))) (let ((.def_6 (and .def_5 .def_4))) .def_6))))))))))(let ((.def_1 (+ t_Measure_141_time 30))) (let ((.def_2 (= .def_1 t_Measure_142_time))) (let ((.def_3 (and .def_2 .def_0))) (let ((.def_4 (Measure t_Measure_142_time t_Measure_142_userUnderDressed t_Measure_142_roomTemperature t_Measure_142_assentToSupportCalls t_Measure_142_userDistressed))) (let ((.def_5 (and .def_4 .def_3))) .def_5)))))))))(let ((.def_7 (exists ((t_DressingStarted_50_time Int)) (let ((.def_0 (+ RetryAgreed_64_time 0))) (let ((.def_1 (<= .def_0 t_DressingStarted_50_time))) (let ((.def_2 (+ RetryAgreed_64_time 30))) (let ((.def_3 (<= t_DressingStarted_50_time .def_2))) (let ((.def_4 (and .def_3 .def_1))) (let ((.def_5 (DressingStarted t_DressingStarted_50_time))) (let ((.def_6 (and .def_5 .def_4))) .def_6))))))))))(let ((.def_8 (or .def_7 .def_6))) (let ((.def_9 (not .def_2))) (let ((.def_10 (or .def_1 .def_9))) (let ((.def_11 (or .def_10 .def_8))) (let ((.def_12 (and .def_11 .def_5))) (let ((.def_13 (= RetryAgreed_64_time t_Measure_141_time))) (let ((.def_14 (and .def_13 .def_12))) (let ((.def_15 (Measure t_Measure_141_time t_Measure_141_userUnderDressed t_Measure_141_roomTemperature t_Measure_141_assentToSupportCalls t_Measure_141_userDistressed))) (let ((.def_16 (and .def_15 .def_14))) .def_16))))))))))))))))))))(let ((.def_1 (RetryAgreed RetryAgreed_64_time))) (let ((.def_2 (not .def_1))) (let ((.def_3 (or .def_2 .def_0))) .def_3)))))))(let ((.def_63 (forall ((RetryAgreed_63_time Int)) (let ((.def_0 (exists ((t_Measure_140_time Int)(t_Measure_140_userUnderDressed Bool)(t_Measure_140_roomTemperature Int)(t_Measure_140_assentToSupportCalls Bool)(t_Measure_140_userDistressed Int)) (let ((.def_0 (exists ((t_DressingStarted_49_time Int)) (let ((.def_0 (+ RetryAgreed_63_time 1))) (let ((.def_1 (<= .def_0 t_DressingStarted_49_time))) (let ((.def_2 (+ RetryAgreed_63_time 30))) (let ((.def_3 (<= t_DressingStarted_49_time .def_2))) (let ((.def_4 (and .def_3 .def_1))) (let ((.def_5 (DressingStarted t_DressingStarted_49_time))) (let ((.def_6 (and .def_5 .def_4))) .def_6))))))))))(let ((.def_1 (= RetryAgreed_63_time t_Measure_140_time))) (let ((.def_2 (and .def_1 .def_0))) (let ((.def_3 (Measure t_Measure_140_time t_Measure_140_userUnderDressed t_Measure_140_roomTemperature t_Measure_140_assentToSupportCalls t_Measure_140_userDistressed))) (let ((.def_4 (and .def_3 .def_2))) .def_4))))))))(let ((.def_1 (RetryAgreed RetryAgreed_63_time))) (let ((.def_2 (not .def_1))) (let ((.def_3 (or .def_2 .def_0))) .def_3)))))))(let ((.def_64 (forall ((DressingStarted_84_time Int)) (let ((.def_0 (exists ((t_Measure_139_time Int)(t_Measure_139_userUnderDressed Bool)(t_Measure_139_roomTemperature Int)(t_Measure_139_assentToSupportCalls Bool)(t_Measure_139_userDistressed Int)) (let ((.def_0 (exists ((t_SupportCalled_64_time Int)) (let ((.def_0 (+ DressingStarted_84_time 0))) (let ((.def_1 (<= .def_0 t_SupportCalled_64_time))) (let ((.def_2 (<= t_SupportCalled_64_time .def_0))) (let ((.def_3 (and .def_2 .def_1))) (let ((.def_4 (SupportCalled t_SupportCalled_64_time))) (let ((.def_5 (and .def_4 .def_3))) .def_5)))))))))(let ((.def_1 (not true))) (let ((.def_2 (not t_Measure_139_assentToSupportCalls))) (let ((.def_3 (or .def_1 .def_2))) (let ((.def_4 (or .def_3 .def_1))) (let ((.def_5 (or .def_4 .def_0))) (let ((.def_6 (and true .def_5))) (let ((.def_7 (< 2 t_Measure_139_userDistressed))) (let ((.def_8 (not .def_7))) (let ((.def_9 (or .def_8 .def_6))) (let ((.def_10 (= DressingStarted_84_time t_Measure_139_time))) (let ((.def_11 (and .def_10 .def_9))) (let ((.def_12 (Measure t_Measure_139_time t_Measure_139_userUnderDressed t_Measure_139_roomTemperature t_Measure_139_assentToSupportCalls t_Measure_139_userDistressed))) (let ((.def_13 (and .def_12 .def_11))) .def_13)))))))))))))))))(let ((.def_1 (DressingStarted DressingStarted_84_time))) (let ((.def_2 (not .def_1))) (let ((.def_3 (or .def_2 .def_0))) .def_3)))))))(let ((.def_65 (forall ((DressingStarted_83_time Int)) (let ((.def_0 (exists ((t_Measure_138_time Int)(t_Measure_138_userUnderDressed Bool)(t_Measure_138_roomTemperature Int)(t_Measure_138_assentToSupportCalls Bool)(t_Measure_138_userDistressed Int)) (let ((.def_0 (exists ((t_DressingAbandoned_66_time Int)) (let ((.def_0 (+ DressingStarted_83_time 0))) (let ((.def_1 (<= .def_0 t_DressingAbandoned_66_time))) (let ((.def_2 (<= t_DressingAbandoned_66_time .def_0))) (let ((.def_3 (and .def_2 .def_1))) (let ((.def_4 (DressingAbandoned t_DressingAbandoned_66_time))) (let ((.def_5 (and .def_4 .def_3))) .def_5)))))))))(let ((.def_1 (< 2 t_Measure_138_userDistressed))) (let ((.def_2 (not .def_1))) (let ((.def_3 (or .def_2 .def_0))) (let ((.def_4 (= DressingStarted_83_time t_Measure_138_time))) (let ((.def_5 (and .def_4 .def_3))) (let ((.def_6 (Measure t_Measure_138_time t_Measure_138_userUnderDressed t_Measure_138_roomTemperature t_Measure_138_assentToSupportCalls t_Measure_138_userDistressed))) (let ((.def_7 (and .def_6 .def_5))) .def_7)))))))))))(let ((.def_1 (DressingStarted DressingStarted_83_time))) (let ((.def_2 (not .def_1))) (let ((.def_3 (or .def_2 .def_0))) .def_3)))))))(let ((.def_66 (forall ((DressingStarted_82_time Int)) (let ((.def_0 (exists ((t_Measure_137_time Int)(t_Measure_137_userUnderDressed Bool)(t_Measure_137_roomTemperature Int)(t_Measure_137_assentToSupportCalls Bool)(t_Measure_137_userDistressed Int)) (let ((.def_0 (exists ((t_DressingComplete_85_time Int)) (let ((.def_0 (+ DressingStarted_82_time 0))) (let ((.def_1 (<= .def_0 t_DressingComplete_85_time))) (let ((.def_2 (+ DressingStarted_82_time 120))) (let ((.def_3 (<= t_DressingComplete_85_time .def_2))) (let ((.def_4 (and .def_3 .def_1))) (let ((.def_5 (DressingComplete t_DressingComplete_85_time))) (let ((.def_6 (and .def_5 .def_4))) .def_6))))))))))(let ((.def_1 (not true))) (let ((.def_2 (<= t_Measure_137_roomTemperature 22))) (let ((.def_3 (<= t_Measure_137_roomTemperature 11))) (let ((.def_4 (and .def_3 t_Measure_137_userUnderDressed))) (let ((.def_5 (or .def_1 .def_4))) (let ((.def_6 (or .def_5 .def_2))) (let ((.def_7 (or .def_6 .def_1))) (let ((.def_8 (or .def_7 .def_0))) (let ((.def_9 (exists ((t_DressingComplete_84_time Int)) (let ((.def_0 (+ DressingStarted_82_time 0))) (let ((.def_1 (<= .def_0 t_DressingComplete_84_time))) (let ((.def_2 (- 22 t_Measure_137_roomTemperature))) (let ((.def_3 (* .def_2 15))) (let ((.def_4 (- 120 .def_3))) (let ((.def_5 (* .def_4 1))) (let ((.def_6 (+ DressingStarted_82_time .def_5))) (let ((.def_7 (<= t_DressingComplete_84_time .def_6))) (let ((.def_8 (and .def_7 .def_1))) (let ((.def_9 (DressingComplete t_DressingComplete_84_time))) (let ((.def_10 (and .def_9 .def_8))) .def_10))))))))))))))(let ((.def_10 (not .def_2))) (let ((.def_11 (or .def_5 .def_10))) (let ((.def_12 (or .def_11 .def_9))) (let ((.def_13 (exists ((t_SupportCalled_63_time Int)) (let ((.def_0 (+ DressingStarted_82_time 0))) (let ((.def_1 (<= .def_0 t_SupportCalled_63_time))) (let ((.def_2 (<= t_SupportCalled_63_time .def_0))) (let ((.def_3 (and .def_2 .def_1))) (let ((.def_4 (SupportCalled t_SupportCalled_63_time))) (let ((.def_5 (and .def_4 .def_3))) .def_5)))))))))(let ((.def_14 (not t_Measure_137_assentToSupportCalls))) (let ((.def_15 (or .def_1 .def_14))) (let ((.def_16 (or .def_15 .def_1))) (let ((.def_17 (or .def_16 .def_13))) (let ((.def_18 (and true .def_17))) (let ((.def_19 (not t_Measure_137_userUnderDressed))) (let ((.def_20 (not .def_3))) (let ((.def_21 (or .def_20 .def_19))) (let ((.def_22 (or .def_1 .def_21))) (let ((.def_23 (or .def_22 .def_18))) (let ((.def_24 (and .def_23 .def_12 .def_8))) (let ((.def_25 (exists ((t_DressingAbandoned_65_time Int)) (let ((.def_0 (+ DressingStarted_82_time 0))) (let ((.def_1 (<= .def_0 t_DressingAbandoned_65_time))) (let ((.def_2 (+ DressingStarted_82_time 120))) (let ((.def_3 (<= t_DressingAbandoned_65_time .def_2))) (let ((.def_4 (and .def_3 .def_1))) (let ((.def_5 (DressingAbandoned t_DressingAbandoned_65_time))) (let ((.def_6 (and .def_5 .def_4))) .def_6))))))))))(let ((.def_26 (or .def_25 .def_24))) (let ((.def_27 (= DressingStarted_82_time t_Measure_137_time))) (let ((.def_28 (and .def_27 .def_26))) (let ((.def_29 (Measure t_Measure_137_time t_Measure_137_userUnderDressed t_Measure_137_roomTemperature t_Measure_137_assentToSupportCalls t_Measure_137_userDistressed))) (let ((.def_30 (and .def_29 .def_28))) .def_30))))))))))))))))))))))))))))))))))(let ((.def_1 (DressingStarted DressingStarted_82_time))) (let ((.def_2 (not .def_1))) (let ((.def_3 (or .def_2 .def_0))) .def_3)))))))(let ((.def_67 (forall ((DressingStarted_81_time Int)) (let ((.def_0 (exists ((t_Measure_136_time Int)(t_Measure_136_userUnderDressed Bool)(t_Measure_136_roomTemperature Int)(t_Measure_136_assentToSupportCalls Bool)(t_Measure_136_userDistressed Int)) (let ((.def_0 (exists ((t_DressingComplete_83_time Int)) (let ((.def_0 (+ DressingStarted_81_time 0))) (let ((.def_1 (<= .def_0 t_DressingComplete_83_time))) (let ((.def_2 (+ DressingStarted_81_time 120))) (let ((.def_3 (<= t_DressingComplete_83_time .def_2))) (let ((.def_4 (and .def_3 .def_1))) (let ((.def_5 (DressingComplete t_DressingComplete_83_time))) (let ((.def_6 (and .def_5 .def_4))) .def_6))))))))))(let ((.def_1 (not true))) (let ((.def_2 (< t_Measure_136_roomTemperature 19))) (let ((.def_3 (< t_Measure_136_roomTemperature 17))) (let ((.def_4 (or .def_1 .def_3))) (let ((.def_5 (or .def_4 .def_2))) (let ((.def_6 (or .def_5 .def_1))) (let ((.def_7 (or .def_6 .def_0))) (let ((.def_8 (exists ((t_DressingComplete_82_time Int)) (let ((.def_0 (+ DressingStarted_81_time 0))) (let ((.def_1 (<= .def_0 t_DressingComplete_82_time))) (let ((.def_2 (+ DressingStarted_81_time 90))) (let ((.def_3 (<= t_DressingComplete_82_time .def_2))) (let ((.def_4 (and .def_3 .def_1))) (let ((.def_5 (DressingComplete t_DressingComplete_82_time))) (let ((.def_6 (and .def_5 .def_4))) .def_6))))))))))(let ((.def_9 (not .def_2))) (let ((.def_10 (or .def_4 .def_9))) (let ((.def_11 (or .def_10 .def_8))) (let ((.def_12 (exists ((t_DressingComplete_81_time Int)) (let ((.def_0 (+ DressingStarted_81_time 0))) (let ((.def_1 (<= .def_0 t_DressingComplete_81_time))) (let ((.def_2 (+ DressingStarted_81_time 60))) (let ((.def_3 (<= t_DressingComplete_81_time .def_2))) (let ((.def_4 (and .def_3 .def_1))) (let ((.def_5 (DressingComplete t_DressingComplete_81_time))) (let ((.def_6 (and .def_5 .def_4))) .def_6))))))))))(let ((.def_13 (not .def_3))) (let ((.def_14 (or .def_1 .def_13))) (let ((.def_15 (or .def_14 .def_12))) (let ((.def_16 (and .def_15 .def_11 .def_7))) (let ((.def_17 (exists ((t_DressingAbandoned_64_time Int)) (let ((.def_0 (+ DressingStarted_81_time 0))) (let ((.def_1 (<= .def_0 t_DressingAbandoned_64_time))) (let ((.def_2 (+ DressingStarted_81_time 120))) (let ((.def_3 (<= t_DressingAbandoned_64_time .def_2))) (let ((.def_4 (and .def_3 .def_1))) (let ((.def_5 (DressingAbandoned t_DressingAbandoned_64_time))) (let ((.def_6 (and .def_5 .def_4))) .def_6))))))))))(let ((.def_18 (or .def_17 .def_16))) (let ((.def_19 (= DressingStarted_81_time t_Measure_136_time))) (let ((.def_20 (and .def_19 .def_18))) (let ((.def_21 (Measure t_Measure_136_time t_Measure_136_userUnderDressed t_Measure_136_roomTemperature t_Measure_136_assentToSupportCalls t_Measure_136_userDistressed))) (let ((.def_22 (and .def_21 .def_20))) .def_22))))))))))))))))))))))))))(let ((.def_1 (DressingStarted DressingStarted_81_time))) (let ((.def_2 (not .def_1))) (let ((.def_3 (or .def_2 .def_0))) .def_3)))))))(let ((.def_68 (exists ((t_DressingAbandoned_63_time Int)) (let ((.def_0 (exists ((t_Measure_135_time Int)(t_Measure_135_userUnderDressed Bool)(t_Measure_135_roomTemperature Int)(t_Measure_135_assentToSupportCalls Bool)(t_Measure_135_userDistressed Int)) (let ((.def_0 (= t_DressingAbandoned_63_time t_Measure_135_time))) (let ((.def_1 (Measure t_Measure_135_time t_Measure_135_userUnderDressed t_Measure_135_roomTemperature t_Measure_135_assentToSupportCalls t_Measure_135_userDistressed))) (let ((.def_2 (and .def_1 .def_0))) .def_2))))))(let ((.def_1 (DressingAbandoned t_DressingAbandoned_63_time))) (let ((.def_2 (and .def_1 .def_0))) .def_2))))))(let ((.def_69 (and .def_68 .def_67 .def_66 .def_65 .def_64 .def_63 .def_62 .def_61 .def_60 .def_59 .def_58 .def_57 .def_56 .def_55 .def_54 .def_49 .def_44 .def_39 .def_34 .def_29 .def_24 .def_19 .def_14 .def_9 .def_8 .def_7 .def_6 .def_5 .def_4 .def_3 .def_2 .def_1 .def_0))) .def_69)))))))))))))))))))))))))))))))))))))))))))))))))))))))))))))))))))))))
(check-sat)
